(set-logic QF_UF)
(declare-fun G101 () Bool)
(declare-fun G104 () Bool)
(declare-fun G107 () Bool)
(declare-fun G110 () Bool)
(declare-fun G113 () Bool)
(declare-fun G116 () Bool)
(declare-fun G119 () Bool)
(declare-fun G122 () Bool)
(declare-fun G125 () Bool)
(declare-fun G128 () Bool)
(declare-fun G131 () Bool)
(declare-fun G134 () Bool)
(declare-fun G137 () Bool)
(declare-fun G140 () Bool)
(declare-fun G143 () Bool)
(declare-fun G146 () Bool)
(declare-fun G210 () Bool)
(declare-fun G214 () Bool)
(declare-fun G217 () Bool)
(declare-fun G221 () Bool)
(declare-fun G224 () Bool)
(declare-fun G227 () Bool)
(declare-fun G234 () Bool)
(declare-fun G237 () Bool)
(declare-fun G469 () Bool)
(declare-fun G472 () Bool)
(declare-fun G475 () Bool)
(declare-fun G478 () Bool)
(declare-fun G898 () Bool)
(declare-fun G900 () Bool)
(declare-fun G902 () Bool)
(declare-fun G952 () Bool)
(declare-fun G953 () Bool)
(assert (let ((.def_0 (not G952))) (let ((.def_1 (and .def_0 G953))) (let ((.def_2 (not .def_1))) (let ((.def_3 (not G125))) (let ((.def_4 (not G143))) (let ((.def_5 (and .def_4 G146))) (let ((.def_6 (not .def_5))) (let ((.def_7 (not G146))) (let ((.def_8 (and .def_7 G143))) (let ((.def_9 (not .def_8))) (let ((.def_10 (and .def_9 .def_6))) (let ((.def_11 (not .def_10))) (let ((.def_12 (and G128 .def_11))) (let ((.def_13 (not .def_12))) (let ((.def_14 (not G128))) (let ((.def_15 (and .def_10 .def_14))) (let ((.def_16 (not .def_15))) (let ((.def_17 (and .def_16 .def_13))) (let ((.def_18 (and .def_17 .def_3))) (let ((.def_19 (not .def_18))) (let ((.def_20 (not .def_17))) (let ((.def_21 (and G125 .def_20))) (let ((.def_22 (not .def_21))) (let ((.def_23 (and .def_22 .def_19))) (let ((.def_24 (not G953))) (let ((.def_25 (and G224 .def_24))) (let ((.def_26 (and .def_25 .def_23))) (let ((.def_27 (not .def_26))) (let ((.def_28 (not .def_25))) (let ((.def_29 (not .def_23))) (let ((.def_30 (and .def_29 .def_28))) (let ((.def_31 (not .def_30))) (let ((.def_32 (and .def_31 .def_27))) (let ((.def_33 (not G119))) (let ((.def_34 (and G116 .def_33))) (let ((.def_35 (not .def_34))) (let ((.def_36 (not G116))) (let ((.def_37 (and G119 .def_36))) (let ((.def_38 (not .def_37))) (let ((.def_39 (and .def_38 .def_35))) (let ((.def_40 (not .def_39))) (let ((.def_41 (and G113 .def_40))) (let ((.def_42 (not .def_41))) (let ((.def_43 (not G113))) (let ((.def_44 (and .def_43 .def_39))) (let ((.def_45 (not .def_44))) (let ((.def_46 (and .def_45 .def_42))) (let ((.def_47 (not G101))) (let ((.def_48 (not G107))) (let ((.def_49 (and .def_48 G104))) (let ((.def_50 (not .def_49))) (let ((.def_51 (not G104))) (let ((.def_52 (and G107 .def_51))) (let ((.def_53 (not .def_52))) (let ((.def_54 (and .def_53 .def_50))) (let ((.def_55 (and .def_54 .def_47))) (let ((.def_56 (not .def_55))) (let ((.def_57 (not .def_54))) (let ((.def_58 (and .def_57 G101))) (let ((.def_59 (not .def_58))) (let ((.def_60 (and .def_59 .def_56))) (let ((.def_61 (and .def_60 .def_46))) (let ((.def_62 (not .def_61))) (let ((.def_63 (not .def_60))) (let ((.def_64 (not .def_46))) (let ((.def_65 (and .def_64 .def_63))) (let ((.def_66 (not .def_65))) (let ((.def_67 (and .def_66 .def_62))) (let ((.def_68 (not G110))) (let ((.def_69 (and .def_68 G122))) (let ((.def_70 (not .def_69))) (let ((.def_71 (not G122))) (let ((.def_72 (and G110 .def_71))) (let ((.def_73 (not .def_72))) (let ((.def_74 (and .def_73 .def_70))) (let ((.def_75 (and .def_74 .def_67))) (let ((.def_76 (not .def_75))) (let ((.def_77 (not .def_67))) (let ((.def_78 (not .def_74))) (let ((.def_79 (and .def_78 .def_77))) (let ((.def_80 (not .def_79))) (let ((.def_81 (and .def_80 .def_76))) (let ((.def_82 (not .def_81))) (let ((.def_83 (and .def_82 .def_32))) (let ((.def_84 (not .def_83))) (let ((.def_85 (not .def_32))) (let ((.def_86 (and .def_85 .def_81))) (let ((.def_87 (not .def_86))) (let ((.def_88 (and .def_87 .def_84))) (let ((.def_89 (not G237))) (let ((.def_90 (not G902))) (let ((.def_91 (and .def_90 .def_89))) (let ((.def_92 (not .def_91))) (let ((.def_93 (and .def_92 G210))) (let ((.def_94 (not G140))) (let ((.def_95 (and .def_94 G110))) (let ((.def_96 (not .def_95))) (let ((.def_97 (and G140 .def_68))) (let ((.def_98 (not .def_97))) (let ((.def_99 (and .def_98 .def_96))) (let ((.def_100 (and .def_24 G227))) (let ((.def_101 (and .def_100 .def_99))) (let ((.def_102 (not .def_101))) (let ((.def_103 (not .def_99))) (let ((.def_104 (not .def_100))) (let ((.def_105 (and .def_104 .def_103))) (let ((.def_106 (not .def_105))) (let ((.def_107 (and .def_106 .def_102))) (let ((.def_108 (and G104 .def_48))) (let ((.def_109 (not .def_108))) (let ((.def_110 (and .def_51 G107))) (let ((.def_111 (not .def_110))) (let ((.def_112 (and .def_111 .def_109))) (let ((.def_113 (and .def_112 .def_47))) (let ((.def_114 (not .def_113))) (let ((.def_115 (not .def_112))) (let ((.def_116 (and .def_115 G101))) (let ((.def_117 (not .def_116))) (let ((.def_118 (and .def_117 .def_114))) (let ((.def_119 (not .def_118))) (let ((.def_120 (and G146 .def_4))) (let ((.def_121 (not .def_120))) (let ((.def_122 (and .def_121 .def_9))) (let ((.def_123 (and .def_14 .def_122))) (let ((.def_124 (not .def_123))) (let ((.def_125 (not .def_122))) (let ((.def_126 (and G128 .def_125))) (let ((.def_127 (not .def_126))) (let ((.def_128 (and .def_127 .def_124))) (let ((.def_129 (not .def_128))) (let ((.def_130 (and .def_129 .def_119))) (let ((.def_131 (not .def_130))) (let ((.def_132 (and .def_118 .def_128))) (let ((.def_133 (not .def_132))) (let ((.def_134 (and .def_133 .def_131))) (let ((.def_135 (not .def_134))) (let ((.def_136 (not G137))) (let ((.def_137 (and .def_136 G134))) (let ((.def_138 (not .def_137))) (let ((.def_139 (not G134))) (let ((.def_140 (and .def_139 G137))) (let ((.def_141 (not .def_140))) (let ((.def_142 (and .def_141 .def_138))) (let ((.def_143 (not G131))) (let ((.def_144 (and .def_143 .def_142))) (let ((.def_145 (not .def_144))) (let ((.def_146 (not .def_142))) (let ((.def_147 (and .def_146 G131))) (let ((.def_148 (not .def_147))) (let ((.def_149 (and .def_148 .def_145))) (let ((.def_150 (not .def_149))) (let ((.def_151 (and .def_150 .def_135))) (let ((.def_152 (not .def_151))) (let ((.def_153 (and .def_149 .def_134))) (let ((.def_154 (not .def_153))) (let ((.def_155 (and .def_154 .def_152))) (let ((.def_156 (and .def_155 .def_107))) (let ((.def_157 (not .def_156))) (let ((.def_158 (not .def_107))) (let ((.def_159 (not .def_155))) (let ((.def_160 (and .def_159 .def_158))) (let ((.def_161 (not .def_160))) (let ((.def_162 (and .def_161 .def_157))) (let ((.def_163 (not .def_162))) (let ((.def_164 (and .def_90 .def_163))) (let ((.def_165 (not .def_164))) (let ((.def_166 (and .def_165 G469))) (let ((.def_167 (not .def_166))) (let ((.def_168 (not G469))) (let ((.def_169 (and .def_168 .def_164))) (let ((.def_170 (not .def_169))) (let ((.def_171 (and .def_170 .def_167))) (let ((.def_172 (and .def_90 G234))) (let ((.def_173 (not .def_172))) (let ((.def_174 (and G221 .def_173))) (let ((.def_175 (not .def_174))) (let ((.def_176 (and .def_175 .def_171))) (let ((.def_177 (and G214 .def_92))) (let ((.def_178 (not .def_177))) (let ((.def_179 (and .def_20 G125))) (let ((.def_180 (not .def_179))) (let ((.def_181 (and .def_180 .def_19))) (let ((.def_182 (and .def_25 .def_181))) (let ((.def_183 (not .def_182))) (let ((.def_184 (not .def_181))) (let ((.def_185 (and .def_184 .def_28))) (let ((.def_186 (not .def_185))) (let ((.def_187 (and .def_186 .def_183))) (let ((.def_188 (and .def_187 .def_81))) (let ((.def_189 (not .def_188))) (let ((.def_190 (not .def_187))) (let ((.def_191 (and .def_190 .def_82))) (let ((.def_192 (not .def_191))) (let ((.def_193 (and .def_192 .def_189))) (let ((.def_194 (and .def_193 .def_90))) (let ((.def_195 (not .def_194))) (let ((.def_196 (and .def_93 .def_195))) (let ((.def_197 (not .def_196))) (let ((.def_198 (not .def_93))) (let ((.def_199 (and .def_198 .def_194))) (let ((.def_200 (not .def_199))) (let ((.def_201 (and .def_200 .def_197))) (let ((.def_202 (not .def_201))) (let ((.def_203 (and .def_202 .def_178))) (let ((.def_204 (and G237 G234))) (let ((.def_205 (not .def_204))) (let ((.def_206 (not G898))) (let ((.def_207 (and .def_206 G953 .def_205 G902))) (let ((.def_208 (not .def_207))) (let ((.def_209 (and .def_205 .def_24 G952))) (let ((.def_210 (not .def_209))) (let ((.def_211 (and .def_210 .def_208))) (let ((.def_212 (not .def_211))) (let ((.def_213 (and G128 .def_33))) (let ((.def_214 (not .def_213))) (let ((.def_215 (and G119 .def_14))) (let ((.def_216 (not .def_215))) (let ((.def_217 (and .def_216 .def_214))) (let ((.def_218 (not .def_217))) (let ((.def_219 (and .def_218 G110))) (let ((.def_220 (not .def_219))) (let ((.def_221 (and .def_68 .def_217))) (let ((.def_222 (not .def_221))) (let ((.def_223 (and .def_222 .def_220))) (let ((.def_224 (and .def_3 G140))) (let ((.def_225 (not .def_224))) (let ((.def_226 (and .def_94 G125))) (let ((.def_227 (not .def_226))) (let ((.def_228 (and .def_227 .def_225))) (let ((.def_229 (and .def_228 .def_7))) (let ((.def_230 (not .def_229))) (let ((.def_231 (not .def_228))) (let ((.def_232 (and G146 .def_231))) (let ((.def_233 (not .def_232))) (let ((.def_234 (and .def_233 .def_230))) (let ((.def_235 (not .def_234))) (let ((.def_236 (and .def_235 .def_223))) (let ((.def_237 (not .def_236))) (let ((.def_238 (not .def_223))) (let ((.def_239 (and .def_234 .def_238))) (let ((.def_240 (not .def_239))) (let ((.def_241 (and .def_240 .def_237))) (let ((.def_242 (not .def_241))) (let ((.def_243 (and G234 G221 .def_24))) (let ((.def_244 (and G137 .def_243))) (let ((.def_245 (not .def_244))) (let ((.def_246 (not .def_243))) (let ((.def_247 (and .def_246 .def_136))) (let ((.def_248 (not .def_247))) (let ((.def_249 (and .def_248 .def_245))) (let ((.def_250 (not .def_249))) (let ((.def_251 (and .def_250 .def_242))) (let ((.def_252 (not .def_251))) (let ((.def_253 (and .def_249 .def_241))) (let ((.def_254 (not .def_253))) (let ((.def_255 (and .def_254 .def_252))) (let ((.def_256 (not .def_255))) (let ((.def_257 (and .def_256 .def_90))) (let ((.def_258 (not .def_257))) (let ((.def_259 (and .def_173 G217))) (let ((.def_260 (and .def_259 .def_258))) (let ((.def_261 (not .def_260))) (let ((.def_262 (not .def_259))) (let ((.def_263 (and .def_262 .def_257))) (let ((.def_264 (not .def_263))) (let ((.def_265 (and .def_264 .def_261))) (let ((.def_266 (and .def_24 .def_89 G210))) (let ((.def_267 (and G101 .def_266))) (let ((.def_268 (not .def_267))) (let ((.def_269 (not .def_266))) (let ((.def_270 (and .def_47 .def_269))) (let ((.def_271 (not .def_270))) (let ((.def_272 (and .def_271 .def_268))) (let ((.def_273 (not .def_272))) (let ((.def_274 (and .def_36 G119))) (let ((.def_275 (not .def_274))) (let ((.def_276 (and .def_35 .def_275))) (let ((.def_277 (and .def_43 .def_276))) (let ((.def_278 (not .def_277))) (let ((.def_279 (not .def_276))) (let ((.def_280 (and .def_279 G113))) (let ((.def_281 (not .def_280))) (let ((.def_282 (and .def_281 .def_278))) (let ((.def_283 (and .def_17 .def_149))) (let ((.def_284 (not .def_283))) (let ((.def_285 (and .def_150 .def_20))) (let ((.def_286 (not .def_285))) (let ((.def_287 (and .def_286 .def_284))) (let ((.def_288 (and .def_287 .def_282))) (let ((.def_289 (not .def_288))) (let ((.def_290 (not .def_282))) (let ((.def_291 (not .def_287))) (let ((.def_292 (and .def_291 .def_290))) (let ((.def_293 (not .def_292))) (let ((.def_294 (and .def_293 .def_289))) (let ((.def_295 (and .def_294 .def_273))) (let ((.def_296 (not .def_295))) (let ((.def_297 (not .def_294))) (let ((.def_298 (and .def_272 .def_297))) (let ((.def_299 (not .def_298))) (let ((.def_300 (and .def_299 .def_296))) (let ((.def_301 (not .def_300))) (let ((.def_302 (and .def_90 .def_301))) (let ((.def_303 (not .def_302))) (let ((.def_304 (and G472 .def_303))) (let ((.def_305 (not .def_304))) (let ((.def_306 (not G472))) (let ((.def_307 (and .def_306 .def_302))) (let ((.def_308 (not .def_307))) (let ((.def_309 (and .def_308 .def_305))) (let ((.def_310 (not .def_309))) (let ((.def_311 (and .def_310 .def_265))) (let ((.def_312 (and .def_7 .def_228))) (let ((.def_313 (not .def_312))) (let ((.def_314 (and .def_233 .def_313))) (let ((.def_315 (and .def_24 G214 .def_89))) (let ((.def_316 (and G143 .def_315))) (let ((.def_317 (not .def_316))) (let ((.def_318 (not .def_315))) (let ((.def_319 (and .def_4 .def_318))) (let ((.def_320 (not .def_319))) (let ((.def_321 (and .def_320 .def_317))) (let ((.def_322 (and .def_321 .def_143))) (let ((.def_323 (not .def_322))) (let ((.def_324 (not .def_321))) (let ((.def_325 (and .def_324 G131))) (let ((.def_326 (not .def_325))) (let ((.def_327 (and .def_326 .def_323))) (let ((.def_328 (not .def_327))) (let ((.def_329 (and .def_328 .def_314))) (let ((.def_330 (not .def_329))) (let ((.def_331 (not .def_314))) (let ((.def_332 (and .def_331 .def_327))) (let ((.def_333 (not .def_332))) (let ((.def_334 (and .def_333 .def_330))) (let ((.def_335 (and G122 .def_43))) (let ((.def_336 (not .def_335))) (let ((.def_337 (and .def_71 G113))) (let ((.def_338 (not .def_337))) (let ((.def_339 (and .def_338 .def_336))) (let ((.def_340 (and .def_339 .def_51))) (let ((.def_341 (not .def_340))) (let ((.def_342 (not .def_339))) (let ((.def_343 (and G104 .def_342))) (let ((.def_344 (not .def_343))) (let ((.def_345 (and .def_344 .def_341))) (let ((.def_346 (not .def_345))) (let ((.def_347 (and .def_346 .def_334))) (let ((.def_348 (not .def_347))) (let ((.def_349 (not .def_334))) (let ((.def_350 (and .def_345 .def_349))) (let ((.def_351 (not .def_350))) (let ((.def_352 (and .def_351 .def_348))) (let ((.def_353 (not .def_352))) (let ((.def_354 (and .def_90 .def_353))) (let ((.def_355 (not G475))) (let ((.def_356 (and .def_355 .def_354))) (let ((.def_357 (not .def_356))) (let ((.def_358 (not .def_354))) (let ((.def_359 (and .def_358 G475))) (let ((.def_360 (not .def_359))) (let ((.def_361 (and .def_360 .def_357))) (let ((.def_362 (not .def_361))) (let ((.def_363 (and .def_24 G234 G217))) (let ((.def_364 (not .def_363))) (let ((.def_365 (and G116 .def_71))) (let ((.def_366 (not .def_365))) (let ((.def_367 (and .def_36 G122))) (let ((.def_368 (not .def_367))) (let ((.def_369 (and .def_368 .def_366))) (let ((.def_370 (not .def_369))) (let ((.def_371 (and .def_370 G107))) (let ((.def_372 (not .def_371))) (let ((.def_373 (and .def_369 .def_48))) (let ((.def_374 (not .def_373))) (let ((.def_375 (and .def_374 .def_372))) (let ((.def_376 (and .def_14 G143))) (let ((.def_377 (not .def_376))) (let ((.def_378 (and .def_4 G128))) (let ((.def_379 (not .def_378))) (let ((.def_380 (and .def_379 .def_377))) (let ((.def_381 (and .def_380 .def_139))) (let ((.def_382 (not .def_381))) (let ((.def_383 (not .def_380))) (let ((.def_384 (and G134 .def_383))) (let ((.def_385 (not .def_384))) (let ((.def_386 (and .def_385 .def_382))) (let ((.def_387 (not .def_386))) (let ((.def_388 (and .def_387 .def_375))) (let ((.def_389 (not .def_388))) (let ((.def_390 (not .def_375))) (let ((.def_391 (and .def_390 .def_386))) (let ((.def_392 (not .def_391))) (let ((.def_393 (and .def_392 .def_389))) (let ((.def_394 (not .def_393))) (let ((.def_395 (and .def_394 .def_364))) (let ((.def_396 (not .def_395))) (let ((.def_397 (and .def_393 .def_363))) (let ((.def_398 (not .def_397))) (let ((.def_399 (and .def_398 .def_396))) (let ((.def_400 (not .def_399))) (let ((.def_401 (and .def_90 .def_400))) (let ((.def_402 (not G478))) (let ((.def_403 (and .def_402 .def_401))) (let ((.def_404 (not .def_403))) (let ((.def_405 (not .def_401))) (let ((.def_406 (and .def_405 G478))) (let ((.def_407 (not .def_406))) (let ((.def_408 (and .def_407 .def_404))) (let ((.def_409 (and .def_408 .def_362))) (let ((.def_410 (and .def_409 .def_311 .def_212 .def_203 .def_176))) (let ((.def_411 (not .def_410))) (let ((.def_412 (and .def_408 .def_361))) (let ((.def_413 (not .def_265))) (let ((.def_414 (and .def_310 .def_413))) (let ((.def_415 (and .def_414 .def_212 .def_203 .def_176 .def_412))) (let ((.def_416 (not .def_415))) (let ((.def_417 (not .def_171))) (let ((.def_418 (and .def_175 .def_417))) (let ((.def_419 (and .def_412 .def_311 .def_212 .def_203 .def_418))) (let ((.def_420 (not .def_419))) (let ((.def_421 (not .def_408))) (let ((.def_422 (and .def_361 .def_421))) (let ((.def_423 (and .def_309 .def_265))) (let ((.def_424 (and .def_423 .def_422 .def_212 .def_203 .def_418))) (let ((.def_425 (not .def_424))) (let ((.def_426 (and .def_309 .def_413))) (let ((.def_427 (and .def_412 .def_426 .def_212 .def_203 .def_418))) (let ((.def_428 (not .def_427))) (let ((.def_429 (and .def_423 .def_409 .def_212 .def_203 .def_418))) (let ((.def_430 (not .def_429))) (let ((.def_431 (and .def_421 .def_362))) (let ((.def_432 (and .def_423 .def_431 .def_212 .def_203 .def_176))) (let ((.def_433 (not .def_432))) (let ((.def_434 (and .def_311 .def_422 .def_212 .def_203 .def_176))) (let ((.def_435 (not .def_434))) (let ((.def_436 (and .def_435 .def_433 .def_430 .def_428 .def_425 .def_420 .def_416 .def_411))) (let ((.def_437 (and .def_178 .def_201))) (let ((.def_438 (not G900))) (let ((.def_439 (and .def_205 G953 G902 .def_438))) (let ((.def_440 (not .def_439))) (let ((.def_441 (and .def_440 .def_210))) (let ((.def_442 (not .def_441))) (let ((.def_443 (and .def_418 .def_311 .def_442 .def_422 .def_437))) (let ((.def_444 (not .def_443))) (let ((.def_445 (and .def_418 .def_414 .def_442 .def_437 .def_412))) (let ((.def_446 (not .def_445))) (let ((.def_447 (and .def_414 .def_442 .def_422 .def_203 .def_418))) (let ((.def_448 (not .def_447))) (let ((.def_449 (and .def_418 .def_414 .def_409 .def_442 .def_203))) (let ((.def_450 (not .def_449))) (let ((.def_451 (and .def_418 .def_409 .def_311 .def_442 .def_437))) (let ((.def_452 (not .def_451))) (let ((.def_453 (and .def_409 .def_442 .def_426 .def_203 .def_176))) (let ((.def_454 (not .def_453))) (let ((.def_455 (and .def_418 .def_409 .def_442 .def_426 .def_437))) (let ((.def_456 (not .def_455))) (let ((.def_457 (and .def_418 .def_431 .def_311 .def_442 .def_203))) (let ((.def_458 (not .def_457))) (let ((.def_459 (and .def_458 .def_456 .def_454 .def_452 .def_450 .def_448 .def_446 .def_444))) (let ((.def_460 (and .def_459 .def_436))) (let ((.def_461 (not .def_460))) (let ((.def_462 (and .def_461 G902 .def_93))) (let ((.def_463 (and .def_462 .def_88))) (let ((.def_464 (not .def_463))) (let ((.def_465 (not .def_462))) (let ((.def_466 (not .def_88))) (let ((.def_467 (and .def_466 .def_465))) (let ((.def_468 (not .def_467))) (let ((.def_469 (and .def_468 .def_464))) (let ((.def_470 (not .def_469))) (let ((.def_471 (and .def_470 .def_2))) (let ((.def_472 (and G224 G898))) (let ((.def_473 (not .def_472))) (let ((.def_474 (and .def_473 G953))) (let ((.def_475 (and .def_63 .def_64))) (let ((.def_476 (not .def_475))) (let ((.def_477 (and .def_476 .def_62))) (let ((.def_478 (and .def_74 .def_477))) (let ((.def_479 (not .def_478))) (let ((.def_480 (not .def_477))) (let ((.def_481 (and .def_480 .def_78))) (let ((.def_482 (not .def_481))) (let ((.def_483 (and .def_482 .def_479))) (let ((.def_484 (and .def_206 G953))) (let ((.def_485 (not .def_484))) (let ((.def_486 (and .def_485 .def_483))) (let ((.def_487 (not .def_486))) (let ((.def_488 (not .def_436))) (let ((.def_489 (and .def_24 .def_488))) (let ((.def_490 (and .def_489 .def_487))) (let ((.def_491 (not .def_490))) (let ((.def_492 (not .def_489))) (let ((.def_493 (and .def_492 .def_486))) (let ((.def_494 (not .def_493))) (let ((.def_495 (and .def_494 .def_491))) (let ((.def_496 (and .def_495 .def_474))) (let ((.def_497 (not .def_496))) (let ((.def_498 (not .def_474))) (let ((.def_499 (not .def_495))) (let ((.def_500 (and .def_499 .def_498))) (let ((.def_501 (not .def_500))) (let ((.def_502 (and .def_501 .def_497))) (let ((.def_503 (and .def_445 .def_136))) (let ((.def_504 (not .def_503))) (let ((.def_505 (and G137 .def_446))) (let ((.def_506 (not .def_505))) (let ((.def_507 (and .def_506 .def_504))) (let ((.def_508 (not .def_507))) (let ((.def_509 (and .def_461 G902 G478))) (let ((.def_510 (and .def_399 .def_509))) (let ((.def_511 (not .def_510))) (let ((.def_512 (not .def_509))) (let ((.def_513 (and .def_400 .def_512))) (let ((.def_514 (not .def_513))) (let ((.def_515 (and .def_514 .def_511))) (let ((.def_516 (not .def_515))) (let ((.def_517 (and .def_2 .def_516))) (let ((.def_518 (not .def_517))) (let ((.def_519 (and .def_269 .def_47))) (let ((.def_520 (not .def_519))) (let ((.def_521 (and .def_266 G101))) (let ((.def_522 (not .def_521))) (let ((.def_523 (and .def_522 .def_520))) (let ((.def_524 (and .def_461 G472 G902))) (let ((.def_525 (and .def_20 .def_150))) (let ((.def_526 (not .def_525))) (let ((.def_527 (and .def_526 .def_284))) (let ((.def_528 (and .def_527 .def_282))) (let ((.def_529 (not .def_528))) (let ((.def_530 (not .def_527))) (let ((.def_531 (and .def_290 .def_530))) (let ((.def_532 (not .def_531))) (let ((.def_533 (and .def_532 .def_529))) (let ((.def_534 (and .def_533 .def_524))) (let ((.def_535 (not .def_534))) (let ((.def_536 (not .def_524))) (let ((.def_537 (not .def_533))) (let ((.def_538 (and .def_537 .def_536))) (let ((.def_539 (not .def_538))) (let ((.def_540 (and .def_539 .def_535))) (let ((.def_541 (not .def_540))) (let ((.def_542 (and .def_541 .def_523))) (let ((.def_543 (not .def_542))) (let ((.def_544 (not .def_523))) (let ((.def_545 (and .def_540 .def_544))) (let ((.def_546 (not .def_545))) (let ((.def_547 (and .def_546 .def_543))) (let ((.def_548 (not .def_547))) (let ((.def_549 (and .def_548 .def_2))) (let ((.def_550 (not .def_549))) (let ((.def_551 (and .def_420 G101))) (let ((.def_552 (not .def_551))) (let ((.def_553 (and .def_47 .def_419))) (let ((.def_554 (not .def_553))) (let ((.def_555 (and .def_554 .def_552))) (let ((.def_556 (and .def_68 G140))) (let ((.def_557 (not .def_556))) (let ((.def_558 (and .def_557 .def_96))) (let ((.def_559 (and .def_558 .def_100))) (let ((.def_560 (not .def_559))) (let ((.def_561 (not .def_558))) (let ((.def_562 (and .def_561 .def_104))) (let ((.def_563 (not .def_562))) (let ((.def_564 (and .def_563 .def_560))) (let ((.def_565 (and .def_128 .def_118))) (let ((.def_566 (not .def_565))) (let ((.def_567 (and .def_119 .def_129))) (let ((.def_568 (not .def_567))) (let ((.def_569 (and .def_568 .def_566))) (let ((.def_570 (not .def_569))) (let ((.def_571 (and .def_570 .def_150))) (let ((.def_572 (not .def_571))) (let ((.def_573 (and .def_569 .def_149))) (let ((.def_574 (not .def_573))) (let ((.def_575 (and .def_574 .def_572))) (let ((.def_576 (and .def_575 .def_564))) (let ((.def_577 (not .def_576))) (let ((.def_578 (not .def_564))) (let ((.def_579 (not .def_575))) (let ((.def_580 (and .def_579 .def_578))) (let ((.def_581 (not .def_580))) (let ((.def_582 (and .def_581 .def_577))) (let ((.def_583 (and .def_461 G902 G469))) (let ((.def_584 (and .def_583 .def_582))) (let ((.def_585 (not .def_584))) (let ((.def_586 (not .def_582))) (let ((.def_587 (not .def_583))) (let ((.def_588 (and .def_587 .def_586))) (let ((.def_589 (not .def_588))) (let ((.def_590 (and .def_589 .def_585))) (let ((.def_591 (not .def_590))) (let ((.def_592 (and .def_591 .def_2))) (let ((.def_593 (not .def_592))) (let ((.def_594 (and .def_434 .def_36))) (let ((.def_595 (not .def_594))) (let ((.def_596 (and G116 .def_435))) (let ((.def_597 (not .def_596))) (let ((.def_598 (and .def_597 .def_595))) (let ((.def_599 (and .def_197 .def_200))) (let ((.def_600 (and .def_167 .def_170))) (let ((.def_601 (and G475 .def_358))) (let ((.def_602 (not .def_601))) (let ((.def_603 (and .def_357 .def_602))) (let ((.def_604 (and .def_401 .def_402))) (let ((.def_605 (not .def_604))) (let ((.def_606 (and .def_605 .def_407))) (let ((.def_607 (and .def_261 .def_264))) (let ((.def_608 (and .def_302 .def_306))) (let ((.def_609 (not .def_608))) (let ((.def_610 (and .def_303 G472))) (let ((.def_611 (not .def_610))) (let ((.def_612 (and .def_611 .def_609))) (let ((.def_613 (and .def_612 .def_178 .def_607 .def_606 .def_603 .def_175 .def_600 .def_599))) (let ((.def_614 (not .def_613))) (let ((.def_615 (and .def_24 .def_0 .def_614))) (let ((.def_616 (and .def_209 .def_418 .def_423 .def_437 .def_412))) (let ((.def_617 (not .def_616))) (let ((.def_618 (and .def_209 .def_311 .def_437 .def_412 .def_176))) (let ((.def_619 (not .def_618))) (let ((.def_620 (and .def_209 .def_423 .def_409 .def_437 .def_176))) (let ((.def_621 (not .def_620))) (let ((.def_622 (and .def_209 .def_423 .def_422 .def_437 .def_176))) (let ((.def_623 (not .def_622))) (let ((.def_624 (and .def_209 .def_423 .def_203 .def_176 .def_412))) (let ((.def_625 (not .def_624))) (let ((.def_626 (and .def_177 .def_201))) (let ((.def_627 (and .def_209 .def_423 .def_176 .def_412 .def_626))) (let ((.def_628 (not .def_627))) (let ((.def_629 (and .def_171 .def_174))) (let ((.def_630 (and .def_209 .def_423 .def_629 .def_437 .def_412))) (let ((.def_631 (not .def_630))) (let ((.def_632 (and .def_209 .def_426 .def_437 .def_412 .def_176))) (let ((.def_633 (not .def_632))) (let ((.def_634 (and .def_633 .def_631 .def_628 .def_625 .def_623 .def_621 .def_619 .def_617))) (let ((.def_635 (and .def_459 .def_634 .def_436))) (let ((.def_636 (and .def_24 .def_635 .def_614 G952))) (let ((.def_637 (or .def_636 .def_615))) (let ((.def_638 (not .def_637))) (let ((.def_639 (and .def_461 G902 .def_259))) (let ((.def_640 (and .def_639 .def_255))) (let ((.def_641 (not .def_640))) (let ((.def_642 (not .def_639))) (let ((.def_643 (and .def_642 .def_256))) (let ((.def_644 (not .def_643))) (let ((.def_645 (and .def_644 .def_641))) (let ((.def_646 (not .def_645))) (let ((.def_647 (and .def_646 .def_2))) (let ((.def_648 (not .def_647))) (let ((.def_649 (and G900 G227))) (let ((.def_650 (not .def_649))) (let ((.def_651 (and G953 .def_650))) (let ((.def_652 (and G125 .def_94))) (let ((.def_653 (not .def_652))) (let ((.def_654 (and .def_225 .def_653))) (let ((.def_655 (and G137 .def_139))) (let ((.def_656 (not .def_655))) (let ((.def_657 (and .def_656 .def_138))) (let ((.def_658 (not .def_657))) (let ((.def_659 (and .def_658 G131))) (let ((.def_660 (not .def_659))) (let ((.def_661 (and .def_143 .def_657))) (let ((.def_662 (not .def_661))) (let ((.def_663 (and .def_662 .def_660))) (let ((.def_664 (and .def_663 .def_128))) (let ((.def_665 (not .def_664))) (let ((.def_666 (not .def_663))) (let ((.def_667 (and .def_129 .def_666))) (let ((.def_668 (not .def_667))) (let ((.def_669 (and .def_668 .def_665))) (let ((.def_670 (and .def_669 .def_654))) (let ((.def_671 (not .def_670))) (let ((.def_672 (not .def_654))) (let ((.def_673 (not .def_669))) (let ((.def_674 (and .def_673 .def_672))) (let ((.def_675 (not .def_674))) (let ((.def_676 (and .def_675 .def_671))) (let ((.def_677 (and G953 .def_438))) (let ((.def_678 (not .def_677))) (let ((.def_679 (and .def_678 .def_676))) (let ((.def_680 (not .def_679))) (let ((.def_681 (not .def_459))) (let ((.def_682 (and .def_681 .def_24))) (let ((.def_683 (and .def_682 .def_680))) (let ((.def_684 (not .def_683))) (let ((.def_685 (not .def_682))) (let ((.def_686 (and .def_685 .def_679))) (let ((.def_687 (not .def_686))) (let ((.def_688 (and .def_687 .def_684))) (let ((.def_689 (and .def_688 .def_651))) (let ((.def_690 (not .def_689))) (let ((.def_691 (not .def_651))) (let ((.def_692 (not .def_688))) (let ((.def_693 (and .def_692 .def_691))) (let ((.def_694 (not .def_693))) (let ((.def_695 (and .def_694 .def_690))) (let ((.def_696 (and G125 .def_454))) (let ((.def_697 (not .def_696))) (let ((.def_698 (and .def_3 .def_453))) (let ((.def_699 (not .def_698))) (let ((.def_700 (and .def_699 .def_697))) (let ((.def_701 (not .def_700))) (let ((.def_702 (and .def_450 G146))) (let ((.def_703 (not .def_702))) (let ((.def_704 (and .def_449 .def_7))) (let ((.def_705 (not .def_704))) (let ((.def_706 (and .def_705 .def_703))) (let ((.def_707 (not .def_706))) (let ((.def_708 (and .def_428 G110))) (let ((.def_709 (not .def_708))) (let ((.def_710 (and .def_427 .def_68))) (let ((.def_711 (not .def_710))) (let ((.def_712 (and .def_711 .def_709))) (let ((.def_713 (and .def_43 .def_410))) (let ((.def_714 (not .def_713))) (let ((.def_715 (and G113 .def_411))) (let ((.def_716 (not .def_715))) (let ((.def_717 (and .def_716 .def_714))) (let ((.def_718 (and G104 .def_430))) (let ((.def_719 (not .def_718))) (let ((.def_720 (and .def_51 .def_429))) (let ((.def_721 (not .def_720))) (let ((.def_722 (and .def_721 .def_719))) (let ((.def_723 (and .def_14 .def_447))) (let ((.def_724 (not .def_723))) (let ((.def_725 (and .def_448 G128))) (let ((.def_726 (not .def_725))) (let ((.def_727 (and .def_726 .def_724))) (let ((.def_728 (not .def_727))) (let ((.def_729 (and .def_94 .def_455))) (let ((.def_730 (not .def_729))) (let ((.def_731 (and G140 .def_456))) (let ((.def_732 (not .def_731))) (let ((.def_733 (and .def_732 .def_730))) (let ((.def_734 (and .def_33 .def_415))) (let ((.def_735 (not .def_734))) (let ((.def_736 (and .def_416 G119))) (let ((.def_737 (not .def_736))) (let ((.def_738 (and .def_737 .def_735))) (let ((.def_739 (not .def_738))) (let ((.def_740 (and .def_457 .def_4))) (let ((.def_741 (not .def_740))) (let ((.def_742 (and G143 .def_458))) (let ((.def_743 (not .def_742))) (let ((.def_744 (and .def_743 .def_741))) (let ((.def_745 (not .def_744))) (let ((.def_746 (and .def_745 .def_739 .def_733 .def_728 .def_722 .def_717 .def_712 .def_707 .def_701 .def_695 .def_648 .def_638 .def_598 .def_593 .def_555 .def_550 .def_518 .def_508 .def_502 .def_471))) .def_746))))))))))))))))))))))))))))))))))))))))))))))))))))))))))))))))))))))))))))))))))))))))))))))))))))))))))))))))))))))))))))))))))))))))))))))))))))))))))))))))))))))))))))))))))))))))))))))))))))))))))))))))))))))))))))))))))))))))))))))))))))))))))))))))))))))))))))))))))))))))))))))))))))))))))))))))))))))))))))))))))))))))))))))))))))))))))))))))))))))))))))))))))))))))))))))))))))))))))))))))))))))))))))))))))))))))))))))))))))))))))))))))))))))))))))))))))))))))))))))))))))))))))))))))))))))))))))))))))))))))))))))))))))))))))))))))))))))))))))))))))))))))))))))))))))))))))))))))))))))))))))))))))))))))))))))))))))))))))))))))))))))))))))))))))))))))))))))))))))))))))))))))))))))))))))))))))))))))))))))))))))))))))))))))))))))))))))
(check-sat)
